% Auto-generated by scripts/generate_dzn.py
% problem_type   = regex
% instance       = regex_6
% source_json    = instances_json/2_high_blowup/regex_6.json
% blowup         = 15.1
% representation = NFA

mode = 1;

var_count = 16;
Q = 10;
S = 3;
q0 = 1;
F = {10};
d_dfa = array2d(1..10, 1..3, [
  0, 0, 0,
  0, 0, 0,
  0, 0, 0,
  0, 0, 0,
  0, 0, 0,
  0, 0, 0,
  0, 0, 0,
  0, 0, 0,
  0, 0, 0,
  0, 0, 0
]);
d_nfa = array2d(1..10, 1..3, [
  {1, 2}, {1}, {1},
  {3}, {}, {},
  {4}, {4}, {4},
  {5}, {5}, {5},
  {6}, {6}, {6},
  {7}, {7}, {7},
  {8}, {8}, {8},
  {9}, {9}, {9},
  {10}, {10}, {10},
  {}, {}, {}
]);
